$molecule
 0 1
 C      0.0415516930      0.7712256316      0.6868700692
 C      0.0413043320     -0.7716464053      0.6864292028
 C      1.1654514144      1.0638666809     -0.3642503655
 C     -1.3259426414      1.1696623200      0.1499475393
 C      1.1651221037     -1.0640385729     -0.3648507682
 C     -1.3263171103     -1.1693341021      0.1492703311
 O      0.9479578270      0.0002001221     -1.2862070597
 C      2.4804055128      0.6653534066      0.2884399855
 N     -2.0320556810      0.0003479012     -0.0947194067
 O     -1.7352971237      2.2874351433     -0.0482862834
 C      2.4801954153     -0.6662967635      0.2880753610
 O     -1.7360362803     -2.2868616135     -0.0495918074
 H      0.2199564813      1.2521014449      1.6498455446
 H      0.2195489412     -1.2531272149      1.6491307411
 H      1.0977218374      2.0324358223     -0.8562105233
 H      1.0971136057     -2.0323193955     -0.8573398946
 H      3.1940513154      1.3470519857      0.7328985074
 H     -2.9511444167      0.0006167870     -0.5172062183
 H      3.1936399211     -1.3484637349      0.7321398845
$end

$rem
   job_type = sp
   method = wb97x-d
   basis = 6-311++g(d,p)
   max_scf_cycles = 200
   gen_scfman = True
   scf_algorithm = diis
   solvent_method = pcm
$end

$pcm
   theory iefpcm
$end

$solvent
   dielectric 80.4
$end
