$molecule
 0 1
 C     -0.3485682768     -0.7762289023     -0.6705164172
 C     -0.3481849795      0.7707627170     -0.6770476832
 C      0.7989355311     -1.0904893100      0.2876880397
 C     -1.6759019765     -1.1363395872     -0.0744270912
 C      0.7991286875      1.0925305921      0.2789324015
 C     -1.6755775367      1.1366110131     -0.0846953282
 O      0.6583014134      0.0048589160      1.2362142860
 C      2.0953778772     -0.6726479776     -0.3463595929
 N     -2.3706648689      0.0014348807      0.1837975630
 O     -2.0690116232     -2.2702713201      0.1445112490
 C      2.0955435920      0.6694389630     -0.3516326984
 O     -2.0684658516      2.2726212324      0.1237036442
 H     -0.2451239947     -1.2156571445     -1.6671607639
 H     -0.2440327645      1.2016788985     -1.6773333292
 H      0.7969124085     -2.0535155327      0.8002521239
 H      0.7971470586      2.0596324727      0.7837601655
 H      2.8512564694     -1.3296185854     -0.7461131502
 H     -3.2796604435      0.0035407899      0.6187751820
 H      2.8515571797      1.3231021499     -0.7565164033
$end

$rem
   job_type = opt
   method = wb97x-d
   basis = 6-31g*
   max_scf_cycles = 200
   gen_scfman = True
   scf_algorithm = diis
   geom_opt_max_cycles = 200
$end
